# Solution for model r3_t27_m5_4
# Finished Task: 26 / 27
# Makespan: 939.0, Total Distance: 1066.0, Total Time: 2.3478
# R O S F
0 0 7 0.0 0.0
1 1 27 0.0 0.0
2 2 8 0.0 0.0
3 -1 -1 -1.0 -1.0
4 2 24 794.0 828.0
5 2 14 266.0 291.0
6 1 10 716.0 738.0
7 0 20 207.0 241.0
8 2 5 170.0 198.0
9 2 25 603.0 635.0
10 1 23 771.0 802.0
11 1 6 695.0 716.0
12 2 9 529.0 566.0
13 1 11 641.0 672.0
14 2 15 349.0 369.0
15 2 18 417.0 444.0
16 1 22 459.0 498.0
17 0 29 713.0 744.0
18 2 12 492.0 519.0
19 0 26 523.0 562.0
20 0 19 406.0 435.0
21 2 4 741.0 777.0
22 1 13 536.0 563.0
23 1 28 878.0 907.0
24 2 -1 842.0 871.0
25 2 21 709.0 741.0
26 0 17 646.0 685.0
27 1 16 402.0 441.0
28 1 -1 907.0 939.0
29 0 -1 763.0 800.0
